18 14 4 9 8 12  
18 6 3 15 11 9 7 4
3 3 14 5 19 13 4 11 10 
9 1 11 6 7 14 1 13 20 
13 6 1 19 2 16 5 4 9 4
10 6 9 8 17 14 7 
2 6 13 18 9 7 19 15 
15 12 4 17 2 1 18 14
14 5 9 13 1 12 2 19 8 
10 17 5 11 4 9 18 20 3 5
